
Gurobi 9.1.2 (win64) logging started Fri Sep 24 05:04:00 2021

Changed value of parameter LogFile to ../results/logs/log_samuel_kroger_2021_09_24_02_00_25.csv_12_250.log
   Prev:   Default: 
Changed value of parameter method to 3
   Prev: -1  Min: -1  Max: 5  Default: -1
Gurobi Optimizer version 9.1.2 build v9.1.2rc0 (win64)
Thread count: 6 physical cores, 12 logical processors, using up to 12 threads
Optimize a model with 232127 rows, 853640 columns and 1108715 nonzeros
Model fingerprint: 0x5b7ddd67
Variable types: 0 continuous, 853640 integer (853640 binary)
Coefficient statistics:
  Matrix range     [1e+00, 1e+01]
  Objective range  [1e+00, 1e+00]
  Bounds range     [1e+00, 1e+00]
  RHS range        [1e+00, 3e+02]
Found heuristic solution: objective 214658.00000
Presolve removed 226081 rows and 844199 columns
Presolve time: 0.88s
Presolved: 6046 rows, 9441 columns, 26682 nonzeros
Found heuristic solution: objective 215180.00000
Variable types: 0 continuous, 9441 integer (7799 binary)

Concurrent LP optimizer: primal simplex, dual simplex, and barrier
Showing barrier log only...

Root barrier log...

Ordering time: 0.00s

Barrier statistics:
 AA' NZ     : 1.533e+04
 Factor NZ  : 2.940e+04 (roughly 6 MBytes of memory)
 Factor Ops : 2.212e+05 (less than 1 second per iteration)
 Threads    : 1

                  Objective                Residual
Iter       Primal          Dual         Primal    Dual     Compl     Time
   0   2.49930348e+05  4.16018938e+05  1.13e+04 1.96e+00  3.12e+02     1s
   1   2.27962690e+05  4.75635296e+05  4.29e+03 5.68e-14  1.18e+02     1s
   2   2.17117397e+05  3.98106981e+05  4.52e+02 4.26e-14  1.72e+01     1s
   3   2.15913674e+05  2.60489138e+05  8.92e+01 6.04e-14  3.40e+00     1s
   4   2.15409749e+05  2.28207085e+05  1.47e+01 1.02e-13  7.17e-01     1s
   5   2.15368632e+05  2.18760486e+05  2.09e-02 5.24e-14  1.45e-01     1s

Barrier performed 5 iterations in 1.23 seconds
Barrier solve interrupted - model solved by another algorithm


Solved with primal simplex

Root relaxation: objective 2.160482e+05, 4430 iterations, 0.06 seconds

    Nodes    |    Current Node    |     Objective Bounds      |     Work
 Expl Unexpl |  Obj  Depth IntInf | Incumbent    BestBd   Gap | It/Node Time

     0     0 216048.155    0 1415 215180.000 216048.155  0.40%     -    1s
H    0     0                    215188.00000 216048.155  0.40%     -    1s
H    0     0                    215230.00000 216048.155  0.38%     -    1s
H    0     0                    215238.00000 216048.155  0.38%     -    1s
H    0     0                    215240.00000 216048.155  0.38%     -    1s
H    0     0                    215313.00000 216044.431  0.34%     -    1s
     0     0 215599.654    0  603 215313.000 215599.654  0.13%     -    1s
H    0     0                    215314.00000 215599.654  0.13%     -    1s
H    0     0                    215462.00000 215599.654  0.06%     -    2s
     0     0 215572.191    0  515 215462.000 215572.191  0.05%     -    2s
     0     0 215570.826    0  511 215462.000 215570.826  0.05%     -    2s
     0     0 215570.773    0  506 215462.000 215570.773  0.05%     -    2s
H    0     0                    215479.00000 215570.773  0.04%     -    2s
H    0     0                    215483.00000 215570.773  0.04%     -    2s
H    0     0                    215488.00000 215532.215  0.02%     -    2s
     0     0 215525.129    0  236 215488.000 215525.129  0.02%     -    2s
     0     0 215522.747    0  195 215488.000 215522.747  0.02%     -    2s
     0     0 215522.691    0  197 215488.000 215522.691  0.02%     -    2s
     0     0 215517.308    0  160 215488.000 215517.308  0.01%     -    2s
H    0     0                    215489.00000 215517.308  0.01%     -    2s
     0     0 215515.547    0  162 215489.000 215515.547  0.01%     -    2s
     0     0 215515.334    0  160 215489.000 215515.334  0.01%     -    2s
     0     0 215512.537    0  143 215489.000 215512.537  0.01%     -    2s
     0     0 215512.077    0  126 215489.000 215512.077  0.01%     -    2s
     0     0 215512.016    0  113 215489.000 215512.016  0.01%     -    3s
     0     0 215510.871    0  112 215489.000 215510.871  0.01%     -    3s
     0     0 215510.705    0  115 215489.000 215510.705  0.01%     -    3s

Cutting planes:
  Gomory: 196
  Cover: 27
  Implied bound: 180
  Clique: 3
  MIR: 761
  StrongCG: 57
  GUB cover: 424
  Zero half: 63
  RLT: 122
  Relax-and-lift: 26

Explored 1 nodes (7026 simplex iterations) in 3.19 seconds
Thread count was 12 (of 12 available processors)

Solution count 10: 215489 215488 215483 ... 215230

Optimal solution found (tolerance 1.00e-04)
Best objective 2.154890000000e+05, best bound 2.155100000000e+05, gap 0.0097%
